\ This file has been generated by DOcplex
\ ENCODING=ISO-8859-1
\Problem name: cvrp_reduced_gap

Minimize
 obj: - 64746.454545454551 z_2_0 - 65699.909090909088 z_2_1
      - 65695.909090909088 z_2_2 - 66361.181818181823 z_2_3
      - 64645.727272727272 z_3_0 - 65993.454545454544 z_3_1
      - 65957.454545454544 z_3_2 - 66885.090909090912 z_3_3
      - 64697.727272727272 z_4_0 - 65883.545454545456 z_4_1
      - 65855.545454545456 z_4_2 - 66670.636363636368 z_4_3
      - 64791.090909090912 z_13_0 - 65668.090909090912 z_13_1
      - 65656.090909090912 z_13_2 - 66257.090909090912 z_13_3 + [
      64729.090909090912 z_2_0^2 + 129458.181818181823 z_2_0*z_2_1
      + 129458.181818181823 z_2_0*z_2_2 + 129458.181818181823 z_2_0*z_2_3
      + 1483.636363636364 z_2_0*z_3_0 + 1309.090909090909 z_2_0*z_4_0
      + 960 z_2_0*z_13_0 + 64729.090909090912 z_2_1^2
      + 129458.181818181823 z_2_1*z_2_2 + 129458.181818181823 z_2_1*z_2_3
      + 1483.636363636364 z_2_1*z_3_1 + 1309.090909090909 z_2_1*z_4_1
      + 960 z_2_1*z_13_1 + 64729.090909090912 z_2_2^2
      + 129458.181818181823 z_2_2*z_2_3 + 1483.636363636364 z_2_2*z_3_2
      + 1309.090909090909 z_2_2*z_4_2 + 960 z_2_2*z_13_2
      + 64729.090909090912 z_2_3^2 + 1483.636363636364 z_2_3*z_3_3
      + 1309.090909090909 z_2_3*z_4_3 + 960 z_2_3*z_13_3
      + 64729.090909090912 z_3_0^2 + 129458.181818181823 z_3_0*z_3_1
      + 129458.181818181823 z_3_0*z_3_2 + 129458.181818181823 z_3_0*z_3_3
      + 1854.545454545455 z_3_0*z_4_0 + 1360 z_3_0*z_13_0
      + 64729.090909090912 z_3_1^2 + 129458.181818181823 z_3_1*z_3_2
      + 129458.181818181823 z_3_1*z_3_3 + 1854.545454545455 z_3_1*z_4_1
      + 1360 z_3_1*z_13_1 + 64729.090909090912 z_3_2^2
      + 129458.181818181823 z_3_2*z_3_3 + 1854.545454545455 z_3_2*z_4_2
      + 1360 z_3_2*z_13_2 + 64729.090909090912 z_3_3^2
      + 1854.545454545455 z_3_3*z_4_3 + 1360 z_3_3*z_13_3
      + 64729.090909090912 z_4_0^2 + 129458.181818181823 z_4_0*z_4_1
      + 129458.181818181823 z_4_0*z_4_2 + 129458.181818181823 z_4_0*z_4_3
      + 1200 z_4_0*z_13_0 + 64729.090909090912 z_4_1^2
      + 129458.181818181823 z_4_1*z_4_2 + 129458.181818181823 z_4_1*z_4_3
      + 1200 z_4_1*z_13_1 + 64729.090909090912 z_4_2^2
      + 129458.181818181823 z_4_2*z_4_3 + 1200 z_4_2*z_13_2
      + 64729.090909090912 z_4_3^2 + 1200 z_4_3*z_13_3
      + 64729.090909090912 z_13_0^2 + 129458.181818181823 z_13_0*z_13_1
      + 129458.181818181823 z_13_0*z_13_2 + 129458.181818181823 z_13_0*z_13_3
      + 64729.090909090912 z_13_1^2 + 129458.181818181823 z_13_1*z_13_2
      + 129458.181818181823 z_13_1*z_13_3 + 64729.090909090912 z_13_2^2
      + 129458.181818181823 z_13_2*z_13_3 + 64729.090909090912 z_13_3^2 ]/2 +
      135946.363636363647
Subject To

Bounds
 0 <= z_2_0 <= 1
 0 <= z_2_1 <= 1
 0 <= z_2_2 <= 1
 0 <= z_2_3 <= 1
 0 <= z_3_0 <= 1
 0 <= z_3_1 <= 1
 0 <= z_3_2 <= 1
 0 <= z_3_3 <= 1
 0 <= z_4_0 <= 1
 0 <= z_4_1 <= 1
 0 <= z_4_2 <= 1
 0 <= z_4_3 <= 1
 0 <= z_13_0 <= 1
 0 <= z_13_1 <= 1
 0 <= z_13_2 <= 1
 0 <= z_13_3 <= 1

Binaries
 z_2_0 z_2_1 z_2_2 z_2_3 z_3_0 z_3_1 z_3_2 z_3_3 z_4_0 z_4_1 z_4_2 z_4_3 z_13_0
 z_13_1 z_13_2 z_13_3
End
